
Gurobi 12.0.2 (win64) logging started Fri Oct 24 16:55:44 2025

Set parameter LogFile to value "C:\Ioana\_uni\honours\slp\algorithm\Main_files\results\fixing paracetamol degradation (updated model)\Task_003_Sample004_irr_gurobi.log"
Gurobi Optimizer version 12.0.2 build v12.0.2rc0 (win64 - Windows 11.0 (26100.2))

CPU model: Intel(R) Core(TM) Ultra 5 125H, instruction set [SSE2|AVX|AVX2]
Thread count: 14 physical cores, 18 logical processors, using up to 18 threads

Non-default parameters:
TimeLimit  2200

Optimize a model with 47228 rows, 34501 columns and 146697 nonzeros
Model fingerprint: 0xbbd3f374
Variable types: 17255 continuous, 17246 integer (17246 binary)
Coefficient statistics:
  Matrix range     [1e-04, 8e+04]
  Objective range  [1e-04, 9e-01]
  Bounds range     [1e+00, 1e+03]
  RHS range        [1e+00, 1e+00]
Found heuristic solution: objective 0.0584844
Presolve removed 47228 rows and 34501 columns
Presolve time: 0.29s
Presolve: All rows and columns removed

Explored 0 nodes (0 simplex iterations) in 0.31 seconds (0.26 work units)
Thread count was 1 (of 18 available processors)

Solution count 1: 0.0584844 

Optimal solution found (tolerance 1.00e-04)
Best objective 5.848435311749e-02, best bound 5.848435311749e-02, gap 0.0000%
